LAMMPS (2 Aug 2023 - Update 2)
# DPD Fluid

variable T    equal 1.0
variable rc   equal 1.0
variable rcD  equal 1.2

units        lj
boundary     p p p
atom_style   atomic
dimension    3
newton       on
comm_modify  vel yes

### create box and configuration
variable     L equal 5.0
lattice      fcc 3.0
Lattice spacing in x,y,z = 1.1006424 1.1006424 1.1006424
region       simBox block 0 ${L} 0 ${L} 0 ${L}
region       simBox block 0 5 0 ${L} 0 ${L}
region       simBox block 0 5 0 5 0 ${L}
region       simBox block 0 5 0 5 0 5
create_box   2 simBox
Created orthogonal box = (0 0 0) to (5.5032121 5.5032121 5.5032121)
  1 by 1 by 1 MPI processor grid
#create_atoms 1 region simBox
create_atoms 1 random 100 12456 simBox
Created 100 atoms
  using lattice units in orthogonal box = (0 0 0) to (5.5032121 5.5032121 5.5032121)
  create_atoms CPU = 0.000 seconds
create_atoms 2 random 100 13245 simBox
Created 100 atoms
  using lattice units in orthogonal box = (0 0 0) to (5.5032121 5.5032121 5.5032121)
  create_atoms CPU = 0.000 seconds
mass         1 1.0
mass         2 2.0
###

pair_style       dpd ${T} ${rc} 3854262
pair_style       dpd 1 ${rc} 3854262
pair_style       dpd 1 1 3854262

pair_coeff   1 1 25.0 4.5  1.2
pair_coeff   1 2 25.1 4.51 1.21
pair_coeff   2 2 25.2 4.52 1.22

timestep     0.01
run_style    verlet

velocity all create ${T} 68768932
velocity all create 1 68768932

thermo_style custom step time temp press
thermo       100

fix 1 all    nve

dump 1 all custom 100 ./dump_dpd.txt id mass type x y vx vy fx fy

run          5000
Generated 0 of 1 mixed pair_coeff terms from geometric mixing rule
Neighbor list info ...
  update: every = 1 steps, delay = 0 steps, check = yes
  max neighbors/atom: 2000, page size: 100000
  master list distance cutoff = 1.52
  ghost atom cutoff = 1.52
  binsize = 0.76, bins = 8 8 8
  1 neighbor lists, perpetual/occasional/extra = 1 0 0
  (1) pair dpd, perpetual
      attributes: half, newton on
      pair build: half/bin/atomonly/newton
      stencil: half/bin/3d
      bin: standard
Per MPI rank memory allocation (min/avg/max) = 3.083 | 3.083 | 3.083 Mbytes
   Step          Time           Temp          Press     
         0   0              1              9.5226009    
       100   1              1.8872197      8.8658345    
       200   2              1.5617492      8.1910204    
       300   3              1.3233317      7.943541     
       400   4              1.2141965      7.9979387    
       500   5              1.1481853      8.1951668    
       600   6              1.1289599      7.9604538    
       700   7              1.0269001      8.4424473    
       800   8              1.0910513      8.3170145    
       900   9              1.083704       7.4819259    
      1000   10             1.1444188      7.9219579    
      1100   11             1.0802594      7.8087426    
      1200   12             0.92741416     7.5575974    
      1300   13             0.99706329     7.599501     
      1400   14             1.0814716      8.4693018    
      1500   15             0.98657482     8.2818887    
      1600   16             1.0704624      7.6024066    
      1700   17             1.0000057      8.0104757    
      1800   18             1.048134       7.7202761    
      1900   19             0.95392079     7.0858271    
      2000   20             0.88236696     7.7533247    
      2100   21             0.98932909     6.9698897    
      2200   22             0.98661116     8.0687651    
      2300   23             0.93743509     7.5420303    
      2400   24             0.89904349     7.1174728    
      2500   25             0.94268156     7.4136934    
      2600   26             0.9453181      7.9513208    
      2700   27             1.0643841      7.9998394    
      2800   28             0.91758806     8.0501902    
      2900   29             0.98365952     7.5147897    
      3000   30             0.97253597     7.6737696    
      3100   31             0.97833839     7.7087898    
      3200   32             1.0212431      7.6362313    
      3300   33             1.0298059      7.5649728    
      3400   34             0.98346242     7.9917891    
      3500   35             0.96107139     7.0700659    
      3600   36             0.98999486     7.152192     
      3700   37             1.0010535      7.2135579    
      3800   38             1.0815905      7.8795315    
      3900   39             1.0979804      7.4278062    
      4000   40             1.1006899      7.9481336    
      4100   41             1.0865494      7.9256659    
      4200   42             0.97682936     7.9996108    
      4300   43             0.97881475     7.8835462    
      4400   44             0.98693421     7.5422805    
      4500   45             0.98595202     8.0208969    
      4600   46             0.92430415     7.6478141    
      4700   47             1.0249044      8.6160749    
      4800   48             1.0285159      7.9179426    
      4900   49             1.0315841      8.3979836    
      5000   50             1.0015374      8.2781084    
Loop time of 0.264394 on 1 procs for 5000 steps with 200 atoms

Performance: 16339261.466 tau/day, 18911.182 timesteps/s, 3.782 Matom-step/s
99.5% CPU use with 1 MPI tasks x no OpenMP threads

MPI task timing breakdown:
Section |  min time  |  avg time  |  max time  |%varavg| %total
---------------------------------------------------------------
Pair    | 0.15671    | 0.15671    | 0.15671    |   0.0 | 59.27
Neigh   | 0.077285   | 0.077285   | 0.077285   |   0.0 | 29.23
Comm    | 0.015986   | 0.015986   | 0.015986   |   0.0 |  6.05
Output  | 0.0080692  | 0.0080692  | 0.0080692  |   0.0 |  3.05
Modify  | 0.0040157  | 0.0040157  | 0.0040157  |   0.0 |  1.52
Other   |            | 0.002328   |            |       |  0.88

Nlocal:            200 ave         200 max         200 min
Histogram: 1 0 0 0 0 0 0 0 0 0
Nghost:            549 ave         549 max         549 min
Histogram: 1 0 0 0 0 0 0 0 0 0
Neighs:           1644 ave        1644 max        1644 min
Histogram: 1 0 0 0 0 0 0 0 0 0

Total # of neighbors = 1644
Ave neighs/atom = 8.22
Neighbor list builds = 1077
Dangerous builds = 0

Total wall time: 0:00:00
