LAMMPS (2 Aug 2023 - Update 2)
# DPD Fluid

variable T    equal 1.0
variable rc   equal 1.0
variable rcD  equal 1.2

units            lj
boundary     p p p
atom_style       atomic
dimension    3
newton       on
comm_modify  vel yes

### create box and configuration
variable     L equal 5.0
lattice      fcc 3.0
Lattice spacing in x,y,z = 1.1006424 1.1006424 1.1006424
region       simBox block 0 ${L} 0 ${L} 0 ${L}
region       simBox block 0 5 0 ${L} 0 ${L}
region       simBox block 0 5 0 5 0 ${L}
region       simBox block 0 5 0 5 0 5
create_box   2 simBox
Created orthogonal box = (0 0 0) to (5.5032121 5.5032121 5.5032121)
  1 by 1 by 1 MPI processor grid
create_atoms 1 random 100 12456 simBox
Created 100 atoms
  using lattice units in orthogonal box = (0 0 0) to (5.5032121 5.5032121 5.5032121)
  create_atoms CPU = 0.000 seconds
create_atoms 2 random 100 13245 simBox
Created 100 atoms
  using lattice units in orthogonal box = (0 0 0) to (5.5032121 5.5032121 5.5032121)
  create_atoms CPU = 0.000 seconds
mass         1 1.0
mass         2 2.0
###

pair_style       dpd/ext ${T} ${rc} 3854262
pair_style       dpd/ext 1 ${rc} 3854262
pair_style       dpd/ext 1 1 3854262

pair_coeff   1 1 25.0 4.5 4.53 0.5 0.53   1.2 #${rcD}
pair_coeff   1 2 25.1 4.51 4.54 0.51 0.54 1.21 #${rcD}
pair_coeff   2 2 25.2 4.52 4.55 0.52 0.55 1.22 #${rcD}

timestep     0.01
run_style    verlet

velocity all create ${T} 68768932
velocity all create 1 68768932

thermo_style custom step time temp press
thermo       100

fix 1 all    nve

dump 1 all custom 100 dump.dpd id type x y z vx vy vz

run          5000
Generated 0 of 1 mixed pair_coeff terms from geometric mixing rule
Neighbor list info ...
  update: every = 1 steps, delay = 0 steps, check = yes
  max neighbors/atom: 2000, page size: 100000
  master list distance cutoff = 1.52
  ghost atom cutoff = 1.52
  binsize = 0.76, bins = 8 8 8
  1 neighbor lists, perpetual/occasional/extra = 1 0 0
  (1) pair dpd/ext, perpetual
      attributes: half, newton on
      pair build: half/bin/atomonly/newton
      stencil: half/bin/3d
      bin: standard
Per MPI rank memory allocation (min/avg/max) = 3.083 | 3.083 | 3.083 Mbytes
   Step          Time           Temp          Press     
         0   0              1              10.864186    
       100   1              1.0896931      7.2783277    
       200   2              1.0160787      7.7584456    
       300   3              0.93694912     7.9749454    
       400   4              0.9448951      7.7503013    
       500   5              0.96654114     9.0053804    
       600   6              1.0296176      7.3389027    
       700   7              1.040535       6.931939     
       800   8              0.9553711      8.8527661    
       900   9              0.94784517     8.1068649    
      1000   10             1.0808914      7.6602888    
      1100   11             1.03462        9.1335692    
      1200   12             0.98258561     7.5087222    
      1300   13             0.94213042     6.9674186    
      1400   14             0.96766314     6.9567288    
      1500   15             1.0036888      7.6732856    
      1600   16             1.0695264      8.5541238    
      1700   17             0.97207139     7.7764296    
      1800   18             0.99572824     8.1111833    
      1900   19             1.0325961      7.0379886    
      2000   20             0.95553712     8.6100739    
      2100   21             0.97370045     8.1008617    
      2200   22             1.0138031      8.2298113    
      2300   23             0.99562349     8.0642649    
      2400   24             1.0028018      7.2541908    
      2500   25             1.0092654      6.5925233    
      2600   26             0.91627142     7.2814499    
      2700   27             0.97293289     8.4452692    
      2800   28             0.88820788     7.8051014    
      2900   29             1.0055777      7.8716435    
      3000   30             1.0302645      7.5497005    
      3100   31             0.95704566     8.2305717    
      3200   32             0.92405279     7.2316982    
      3300   33             0.90463349     6.7210354    
      3400   34             1.0368002      7.1522244    
      3500   35             0.93249398     7.3416808    
      3600   36             1.1222386      7.3426757    
      3700   37             1.0920143      8.0079771    
      3800   38             1.010664       7.4313508    
      3900   39             0.96731168     8.2111916    
      4000   40             1.0178763      7.0239963    
      4100   41             0.95139743     7.9157344    
      4200   42             0.98759099     8.4822314    
      4300   43             1.1031947      7.7764918    
      4400   44             1.0025612      8.1526087    
      4500   45             1.0034572      6.9114229    
      4600   46             1.091316       7.0123243    
      4700   47             0.98453306     7.7807194    
      4800   48             1.0386143      7.9153535    
      4900   49             0.97173325     6.9408702    
      5000   50             0.95705485     6.7146087    
Loop time of 0.531725 on 1 procs for 5000 steps with 200 atoms

Performance: 8124492.914 tau/day, 9403.348 timesteps/s, 1.881 Matom-step/s
99.7% CPU use with 1 MPI tasks x no OpenMP threads

MPI task timing breakdown:
Section |  min time  |  avg time  |  max time  |%varavg| %total
---------------------------------------------------------------
Pair    | 0.4306     | 0.4306     | 0.4306     |   0.0 | 80.98
Neigh   | 0.072065   | 0.072065   | 0.072065   |   0.0 | 13.55
Comm    | 0.016372   | 0.016372   | 0.016372   |   0.0 |  3.08
Output  | 0.0067378  | 0.0067378  | 0.0067378  |   0.0 |  1.27
Modify  | 0.0036935  | 0.0036935  | 0.0036935  |   0.0 |  0.69
Other   |            | 0.002254   |            |       |  0.42

Nlocal:            200 ave         200 max         200 min
Histogram: 1 0 0 0 0 0 0 0 0 0
Nghost:            564 ave         564 max         564 min
Histogram: 1 0 0 0 0 0 0 0 0 0
Neighs:           1659 ave        1659 max        1659 min
Histogram: 1 0 0 0 0 0 0 0 0 0

Total # of neighbors = 1659
Ave neighs/atom = 8.295
Neighbor list builds = 1023
Dangerous builds = 0

Total wall time: 0:00:00
